NAME : p01
COMMENT : short set
TYPE : TSP
DIMENSION : 15
EDGE_WEIGHT_TYPE : EUC_2D
NODE_COORD_SECTION
1 -0.00000 0.00000
2 -28.87328 -0.00000
3 -79.29157 21.40333
4 -14.65773 43.38954
5 -64.74726 -21.89817
6 -29.05846 43.21672
7 -72.07853 -0.18158
8 -36.03664 21.61354
9 -50.48083 -7.37447
10 -50.58590 21.58819
11 -0.13582 28.729289
12 -65.08656 36.06246
13 -21.49832 -7.31941
14 -57.56872 43.25055
15 -43.07002 -14.55483
EOF